=====UNKNOWN=====
% time elapsed: 1800.27 s
%%%mzn-stat: initTime=0.030635879
%%%mzn-stat: nodes=779449
%%%mzn-stat: restarts=0
%%%mzn-stat: peakDepth=287
%%%mzn-stat: solveTime=1798.420383764
%%%mzn-stat: variables=2426
%%%mzn-stat: propagators=2004
%%%mzn-stat: failures=758454
%%%mzn-stat: propagations=53436495
%%%mzn-stat: nogoods=758454
%%%mzn-stat: AverageConflictSize=91.99563322231803
%%%mzn-stat: NumUnitNogoodsLearned=144
%%%mzn-stat: AverageLearnedNogoodLength=124.25569777468377
%%%mzn-stat: AverageBacktrackAmount=0
%%%mzn-stat: AverageLbd=36.30559005556039
%%%mzn-stat-end
